Optimal - objective value -2977.00000000
     71 x_71                   1                       0
    131 x_131                  1                       0
    243 x_243                  1                      13
    248 x_248                  1                       0
    303 x_303                  1         15.3109452736318
    339 x_339                  1                       0
    375 x_375                  1                       0
    414 x_414                  1                       0
    435 x_435                  1                       0
    438 x_438                  1         -27.6965174129353
    475 x_475                  1                       0
    593 x_593                  1                       0
    622 x_622                  1                       0
    640 x_640                  1                       0
    643 x_643                  1                       0
    714 x_714                  1                       0
    758 x_758                  1                       0
    917 x_917                  1                       0
    928 x_928                  1                       0
    931 x_931                  1                       0
    985 x_985                  1                       0
   1052 x_1052                 1                       0
   1061 x_1061                 1                       0
   1078 x_1078                 1                       0
   1080 x_1080                 1                     -13
   1121 x_1121                 1                       0
   1225 x_1225                 1         83.273631840796
   1341 x_1341                 1                       0
   1367 x_1367                 1                       0
   1457 x_1457                 1         -40.2487562189055
   1473 x_1473                 1         -2.40547263681592
   1531 x_1531                 1                       0
   1586 x_1586                 1                       0
   1624 x_1624                 1                       0
   1652 x_1652                 1                    77.5
   1675 x_1675                 1                     -45
   1712 x_1712                 1         -5.74253731343284
   1798 x_1798                 1                     -95
   1857 x_1857                 1                       0
   1919 x_1919                 1                       0
   1931 x_1931                 1                       0
   1949 x_1949                 1                       0
   1958 x_1958                 1                     -71
   1981 x_1981                 1         -55.636815920398
   1992 x_1992                 1         -2.27611940298507
   2071 x_2071                 1                     -33
